p edge 1819 1729
e 1 2
e 1 3
e 1 4
e 1 5
e 1 6
e 1 7
e 1 8
e 1 9
e 1 10
e 1 11
e 1 12
e 1 13
e 14 15
e 14 16
e 14 17
e 14 18
e 14 19
e 14 20
e 14 21
e 14 22
e 14 23
e 14 24
e 14 25
e 26 27
e 26 28
e 26 29
e 26 30
e 26 31
e 26 32
e 26 33
e 26 34
e 26 35
e 26 36
e 26 37
e 26 38
e 26 39
e 26 40
e 26 41
e 26 42
e 26 43
e 26 44
e 26 45
e 26 46
e 26 47
e 26 48
e 49 50
e 49 51
e 49 52
e 49 53
e 49 54
e 49 55
e 49 56
e 49 57
e 49 58
e 49 59
e 49 60
e 49 61
e 62 63
e 62 64
e 62 65
e 62 66
e 62 67
e 62 68
e 62 69
e 62 70
e 62 71
e 62 72
e 62 73
e 62 74
e 62 75
e 62 76
e 62 77
e 62 78
e 62 79
e 62 80
e 62 81
e 62 82
e 62 83
e 62 84
e 62 85
e 62 86
e 62 87
e 88 89
e 88 90
e 88 91
e 88 92
e 88 93
e 88 94
e 88 95
e 88 96
e 88 97
e 88 98
e 88 99
e 88 100
e 88 101
e 88 102
e 88 103
e 88 104
e 88 105
e 88 106
e 88 107
e 88 108
e 88 109
e 88 110
e 88 111
e 88 112
e 113 114
e 113 115
e 113 116
e 113 117
e 113 118
e 113 119
e 113 120
e 113 121
e 113 122
e 113 123
e 113 124
e 113 125
e 113 126
e 113 127
e 113 128
e 113 129
e 113 130
e 113 131
e 113 132
e 113 133
e 113 134
e 113 135
e 136 137
e 136 138
e 136 139
e 136 140
e 136 141
e 136 142
e 136 143
e 136 144
e 136 145
e 136 146
e 136 147
e 136 148
e 136 149
e 136 150
e 136 151
e 136 152
e 136 153
e 136 154
e 136 155
e 136 156
e 136 157
e 136 158
e 136 159
e 136 160
e 136 161
e 136 162
e 136 163
e 136 164
e 136 165
e 136 166
e 167 168
e 167 169
e 167 170
e 167 171
e 167 172
e 167 173
e 167 174
e 167 175
e 167 176
e 167 177
e 167 178
e 167 179
e 167 180
e 181 182
e 181 183
e 181 184
e 181 185
e 181 186
e 181 187
e 181 188
e 181 189
e 181 190
e 181 191
e 181 192
e 181 193
e 181 194
e 181 195
e 181 196
e 181 197
e 181 198
e 199 200
e 199 201
e 199 202
e 199 203
e 199 204
e 199 205
e 199 206
e 199 207
e 199 208
e 199 209
e 199 210
e 199 211
e 199 212
e 199 213
e 199 214
e 199 215
e 199 216
e 199 217
e 199 218
e 199 219
e 199 220
e 199 221
e 199 222
e 199 223
e 199 224
e 225 226
e 225 227
e 225 228
e 225 229
e 225 230
e 225 231
e 225 232
e 225 233
e 225 234
e 225 235
e 225 236
e 225 237
e 225 238
e 225 239
e 225 240
e 225 241
e 225 242
e 225 243
e 225 244
e 225 245
e 225 246
e 225 247
e 225 248
e 225 249
e 250 251
e 250 252
e 250 253
e 250 254
e 250 255
e 250 256
e 250 257
e 250 258
e 250 259
e 250 260
e 250 261
e 250 262
e 250 263
e 250 264
e 250 265
e 250 266
e 267 268
e 267 269
e 267 270
e 267 271
e 267 272
e 267 273
e 267 274
e 267 275
e 267 276
e 267 277
e 267 278
e 267 279
e 267 280
e 267 281
e 267 282
e 267 283
e 267 284
e 267 285
e 267 286
e 267 287
e 267 288
e 267 289
e 267 290
e 267 291
e 267 292
e 293 294
e 293 295
e 293 296
e 293 297
e 293 298
e 293 299
e 293 300
e 293 301
e 293 302
e 293 303
e 304 305
e 304 306
e 304 307
e 304 308
e 304 309
e 304 310
e 304 311
e 304 312
e 304 313
e 304 314
e 304 315
e 304 316
e 304 317
e 304 318
e 304 319
e 304 320
e 304 321
e 304 322
e 304 323
e 304 324
e 304 325
e 304 326
e 327 328
e 327 329
e 327 330
e 327 331
e 327 332
e 327 333
e 327 334
e 327 335
e 327 336
e 327 337
e 327 338
e 327 339
e 327 340
e 327 341
e 327 342
e 327 343
e 327 344
e 327 345
e 327 346
e 327 347
e 348 349
e 348 350
e 348 351
e 348 352
e 348 353
e 348 354
e 348 355
e 348 356
e 348 357
e 348 358
e 348 359
e 348 360
e 348 361
e 348 362
e 348 363
e 348 364
e 348 365
e 348 366
e 348 367
e 348 368
e 369 370
e 369 371
e 369 372
e 369 373
e 369 374
e 369 375
e 369 376
e 369 377
e 369 378
e 369 379
e 369 380
e 369 381
e 369 382
e 369 383
e 369 384
e 385 386
e 385 387
e 385 388
e 385 389
e 385 390
e 385 391
e 385 392
e 385 393
e 385 394
e 385 395
e 385 396
e 385 397
e 385 398
e 385 399
e 385 400
e 401 402
e 401 403
e 401 404
e 401 405
e 401 406
e 401 407
e 401 408
e 401 409
e 401 410
e 401 411
e 401 412
e 401 413
e 414 415
e 414 416
e 414 417
e 414 418
e 414 419
e 414 420
e 414 421
e 414 422
e 414 423
e 414 424
e 414 425
e 414 426
e 414 427
e 414 428
e 414 429
e 414 430
e 414 431
e 414 432
e 414 433
e 414 434
e 414 435
e 414 436
e 414 437
e 414 438
e 414 439
e 414 440
e 414 441
e 442 443
e 442 444
e 442 445
e 442 446
e 442 447
e 442 448
e 442 449
e 442 450
e 442 451
e 442 452
e 442 453
e 442 454
e 442 455
e 442 456
e 442 457
e 442 458
e 459 460
e 459 461
e 459 462
e 459 463
e 459 464
e 459 465
e 459 466
e 459 467
e 459 468
e 459 469
e 459 470
e 459 471
e 459 472
e 459 473
e 474 475
e 474 476
e 474 477
e 474 478
e 474 479
e 474 480
e 474 481
e 474 482
e 474 483
e 474 484
e 474 485
e 474 486
e 474 487
e 474 488
e 474 489
e 474 490
e 474 491
e 474 492
e 474 493
e 474 494
e 474 495
e 496 497
e 496 498
e 496 499
e 496 500
e 496 501
e 496 502
e 496 503
e 496 504
e 496 505
e 496 506
e 496 507
e 496 508
e 496 509
e 496 510
e 496 511
e 496 512
e 496 513
e 514 515
e 514 516
e 514 517
e 514 518
e 514 519
e 514 520
e 514 521
e 514 522
e 514 523
e 514 524
e 514 525
e 514 526
e 514 527
e 514 528
e 514 529
e 514 530
e 514 531
e 514 532
e 514 533
e 514 534
e 514 535
e 536 537
e 536 538
e 536 539
e 536 540
e 536 541
e 536 542
e 536 543
e 536 544
e 536 545
e 536 546
e 536 547
e 536 548
e 536 549
e 536 550
e 536 551
e 536 552
e 536 553
e 536 554
e 555 556
e 555 557
e 555 558
e 555 559
e 555 560
e 555 561
e 555 562
e 555 563
e 555 564
e 555 565
e 555 566
e 555 567
e 555 568
e 555 569
e 555 570
e 555 571
e 555 572
e 555 573
e 555 574
e 555 575
e 576 577
e 576 578
e 576 579
e 576 580
e 576 581
e 576 582
e 576 583
e 576 584
e 576 585
e 576 586
e 576 587
e 576 588
e 576 589
e 590 591
e 590 592
e 590 593
e 590 594
e 590 595
e 590 596
e 590 597
e 590 598
e 590 599
e 590 600
e 590 601
e 590 602
e 590 603
e 590 604
e 590 605
e 606 607
e 606 608
e 606 609
e 606 610
e 606 611
e 606 612
e 606 613
e 606 614
e 606 615
e 606 616
e 606 617
e 606 618
e 606 619
e 606 620
e 606 621
e 606 622
e 606 623
e 606 624
e 606 625
e 626 627
e 626 628
e 626 629
e 626 630
e 626 631
e 626 632
e 626 633
e 626 634
e 626 635
e 626 636
e 637 638
e 637 639
e 637 640
e 637 641
e 637 642
e 637 643
e 637 644
e 637 645
e 637 646
e 637 647
e 637 648
e 637 649
e 637 650
e 637 651
e 637 652
e 637 653
e 637 654
e 637 655
e 637 656
e 637 657
e 637 658
e 637 659
e 637 660
e 637 661
e 637 662
e 637 663
e 637 664
e 637 665
e 666 667
e 666 668
e 666 669
e 666 670
e 666 671
e 666 672
e 666 673
e 666 674
e 666 675
e 666 676
e 666 677
e 666 678
e 666 679
e 666 680
e 666 681
e 666 682
e 666 683
e 666 684
e 666 685
e 666 686
e 666 687
e 666 688
e 666 689
e 666 690
e 666 691
e 666 692
e 693 694
e 693 695
e 693 696
e 693 697
e 693 698
e 693 699
e 693 700
e 693 701
e 693 702
e 693 703
e 693 704
e 693 705
e 693 706
e 707 708
e 707 709
e 707 710
e 707 711
e 707 712
e 707 713
e 707 714
e 707 715
e 707 716
e 707 717
e 707 718
e 707 719
e 720 721
e 720 722
e 720 723
e 720 724
e 720 725
e 720 726
e 720 727
e 720 728
e 720 729
e 720 730
e 720 731
e 720 732
e 720 733
e 720 734
e 720 735
e 720 736
e 720 737
e 720 738
e 739 740
e 739 741
e 739 742
e 739 743
e 739 744
e 739 745
e 739 746
e 739 747
e 739 748
e 739 749
e 739 750
e 739 751
e 739 752
e 739 753
e 739 754
e 739 755
e 739 756
e 739 757
e 739 758
e 739 759
e 739 760
e 739 761
e 739 762
e 739 763
e 764 765
e 764 766
e 764 767
e 764 768
e 764 769
e 764 770
e 764 771
e 764 772
e 764 773
e 764 774
e 764 775
e 764 776
e 764 777
e 764 778
e 764 779
e 764 780
e 781 782
e 781 783
e 781 784
e 781 785
e 781 786
e 781 787
e 781 788
e 781 789
e 781 790
e 781 791
e 781 792
e 781 793
e 781 794
e 781 795
e 781 796
e 781 797
e 781 798
e 781 799
e 800 801
e 800 802
e 800 803
e 800 804
e 800 805
e 800 806
e 800 807
e 800 808
e 800 809
e 800 810
e 800 811
e 800 812
e 800 813
e 800 814
e 800 815
e 800 816
e 800 817
e 800 818
e 800 819
e 800 820
e 821 822
e 821 823
e 821 824
e 821 825
e 821 826
e 821 827
e 821 828
e 821 829
e 821 830
e 821 831
e 821 832
e 821 833
e 821 834
e 821 835
e 821 836
e 821 837
e 821 838
e 821 839
e 821 840
e 821 841
e 821 842
e 821 843
e 821 844
e 821 845
e 821 846
e 821 847
e 848 849
e 848 850
e 848 851
e 848 852
e 848 853
e 848 854
e 848 855
e 848 856
e 848 857
e 848 858
e 848 859
e 848 860
e 861 862
e 861 863
e 861 864
e 861 865
e 861 866
e 861 867
e 861 868
e 861 869
e 861 870
e 861 871
e 861 872
e 861 873
e 861 874
e 861 875
e 861 876
e 877 878
e 877 879
e 877 880
e 877 881
e 877 882
e 877 883
e 877 884
e 877 885
e 877 886
e 877 887
e 877 888
e 877 889
e 877 890
e 877 891
e 877 892
e 877 893
e 877 894
e 877 895
e 877 896
e 877 897
e 877 898
e 877 899
e 877 900
e 877 901
e 877 902
e 877 903
e 904 905
e 904 906
e 904 907
e 904 908
e 904 909
e 904 910
e 904 911
e 904 912
e 904 913
e 904 914
e 904 915
e 904 916
e 904 917
e 904 918
e 904 919
e 904 920
e 904 921
e 904 922
e 904 923
e 904 924
e 904 925
e 904 926
e 904 927
e 904 928
e 904 929
e 904 930
e 904 931
e 904 932
e 933 934
e 933 935
e 933 936
e 933 937
e 933 938
e 933 939
e 933 940
e 933 941
e 933 942
e 933 943
e 933 944
e 933 945
e 933 946
e 947 948
e 947 949
e 947 950
e 947 951
e 947 952
e 947 953
e 947 954
e 947 955
e 947 956
e 947 957
e 958 959
e 958 960
e 958 961
e 958 962
e 958 963
e 958 964
e 958 965
e 958 966
e 958 967
e 958 968
e 958 969
e 958 970
e 958 971
e 958 972
e 958 973
e 958 974
e 958 975
e 958 976
e 958 977
e 958 978
e 958 979
e 958 980
e 958 981
e 958 982
e 983 984
e 983 985
e 983 986
e 983 987
e 983 988
e 983 989
e 983 990
e 983 991
e 983 992
e 983 993
e 983 994
e 983 995
e 983 996
e 983 997
e 983 998
e 983 999
e 983 1000
e 983 1001
e 983 1002
e 983 1003
e 983 1004
e 983 1005
e 983 1006
e 983 1007
e 983 1008
e 1009 1010
e 1009 1011
e 1009 1012
e 1009 1013
e 1009 1014
e 1009 1015
e 1009 1016
e 1009 1017
e 1009 1018
e 1009 1019
e 1009 1020
e 1009 1021
e 1009 1022
e 1009 1023
e 1009 1024
e 1009 1025
e 1009 1026
e 1009 1027
e 1009 1028
e 1009 1029
e 1009 1030
e 1031 1032
e 1031 1033
e 1031 1034
e 1031 1035
e 1031 1036
e 1031 1037
e 1031 1038
e 1031 1039
e 1031 1040
e 1031 1041
e 1031 1042
e 1043 1044
e 1043 1045
e 1043 1046
e 1043 1047
e 1043 1048
e 1043 1049
e 1043 1050
e 1043 1051
e 1043 1052
e 1043 1053
e 1043 1054
e 1043 1055
e 1043 1056
e 1043 1057
e 1043 1058
e 1043 1059
e 1043 1060
e 1043 1061
e 1062 1063
e 1062 1064
e 1062 1065
e 1062 1066
e 1062 1067
e 1062 1068
e 1062 1069
e 1062 1070
e 1062 1071
e 1062 1072
e 1062 1073
e 1062 1074
e 1062 1075
e 1062 1076
e 1062 1077
e 1062 1078
e 1062 1079
e 1062 1080
e 1062 1081
e 1062 1082
e 1062 1083
e 1062 1084
e 1062 1085
e 1062 1086
e 1062 1087
e 1062 1088
e 1062 1089
e 1062 1090
e 1062 1091
e 1062 1092
e 1093 1094
e 1093 1095
e 1093 1096
e 1093 1097
e 1093 1098
e 1093 1099
e 1093 1100
e 1093 1101
e 1093 1102
e 1093 1103
e 1093 1104
e 1093 1105
e 1093 1106
e 1093 1107
e 1093 1108
e 1093 1109
e 1093 1110
e 1093 1111
e 1093 1112
e 1093 1113
e 1093 1114
e 1093 1115
e 1116 1117
e 1116 1118
e 1116 1119
e 1116 1120
e 1116 1121
e 1116 1122
e 1116 1123
e 1116 1124
e 1116 1125
e 1116 1126
e 1116 1127
e 1116 1128
e 1129 1130
e 1129 1131
e 1129 1132
e 1129 1133
e 1129 1134
e 1129 1135
e 1129 1136
e 1129 1137
e 1129 1138
e 1129 1139
e 1129 1140
e 1129 1141
e 1129 1142
e 1129 1143
e 1144 1145
e 1144 1146
e 1144 1147
e 1144 1148
e 1144 1149
e 1144 1150
e 1144 1151
e 1144 1152
e 1144 1153
e 1144 1154
e 1144 1155
e 1144 1156
e 1144 1157
e 1144 1158
e 1144 1159
e 1144 1160
e 1144 1161
e 1144 1162
e 1144 1163
e 1144 1164
e 1144 1165
e 1144 1166
e 1144 1167
e 1144 1168
e 1144 1169
e 1144 1170
e 1144 1171
e 1144 1172
e 1144 1173
e 1174 1175
e 1174 1176
e 1174 1177
e 1174 1178
e 1174 1179
e 1174 1180
e 1174 1181
e 1174 1182
e 1174 1183
e 1174 1184
e 1174 1185
e 1174 1186
e 1174 1187
e 1174 1188
e 1174 1189
e 1174 1190
e 1174 1191
e 1174 1192
e 1174 1193
e 1174 1194
e 1174 1195
e 1174 1196
e 1174 1197
e 1174 1198
e 1174 1199
e 1174 1200
e 1174 1201
e 1202 1203
e 1202 1204
e 1202 1205
e 1202 1206
e 1202 1207
e 1202 1208
e 1202 1209
e 1202 1210
e 1202 1211
e 1202 1212
e 1202 1213
e 1202 1214
e 1202 1215
e 1202 1216
e 1202 1217
e 1202 1218
e 1202 1219
e 1202 1220
e 1202 1221
e 1202 1222
e 1202 1223
e 1224 1225
e 1224 1226
e 1224 1227
e 1224 1228
e 1224 1229
e 1224 1230
e 1224 1231
e 1224 1232
e 1224 1233
e 1224 1234
e 1235 1236
e 1235 1237
e 1235 1238
e 1235 1239
e 1235 1240
e 1235 1241
e 1235 1242
e 1235 1243
e 1235 1244
e 1235 1245
e 1235 1246
e 1235 1247
e 1235 1248
e 1235 1249
e 1235 1250
e 1235 1251
e 1235 1252
e 1235 1253
e 1235 1254
e 1235 1255
e 1235 1256
e 1257 1258
e 1257 1259
e 1257 1260
e 1257 1261
e 1257 1262
e 1257 1263
e 1257 1264
e 1257 1265
e 1257 1266
e 1257 1267
e 1257 1268
e 1257 1269
e 1257 1270
e 1257 1271
e 1257 1272
e 1257 1273
e 1257 1274
e 1257 1275
e 1257 1276
e 1257 1277
e 1257 1278
e 1257 1279
e 1257 1280
e 1257 1281
e 1257 1282
e 1257 1283
e 1257 1284
e 1285 1286
e 1285 1287
e 1285 1288
e 1285 1289
e 1285 1290
e 1285 1291
e 1285 1292
e 1285 1293
e 1285 1294
e 1285 1295
e 1285 1296
e 1285 1297
e 1285 1298
e 1285 1299
e 1285 1300
e 1285 1301
e 1285 1302
e 1285 1303
e 1285 1304
e 1305 1306
e 1305 1307
e 1305 1308
e 1305 1309
e 1305 1310
e 1305 1311
e 1305 1312
e 1305 1313
e 1305 1314
e 1305 1315
e 1305 1316
e 1305 1317
e 1318 1319
e 1318 1320
e 1318 1321
e 1318 1322
e 1318 1323
e 1318 1324
e 1318 1325
e 1318 1326
e 1318 1327
e 1318 1328
e 1318 1329
e 1318 1330
e 1318 1331
e 1318 1332
e 1318 1333
e 1318 1334
e 1318 1335
e 1318 1336
e 1318 1337
e 1338 1339
e 1338 1340
e 1338 1341
e 1338 1342
e 1338 1343
e 1338 1344
e 1338 1345
e 1338 1346
e 1338 1347
e 1338 1348
e 1338 1349
e 1338 1350
e 1338 1351
e 1338 1352
e 1338 1353
e 1338 1354
e 1355 1356
e 1355 1357
e 1355 1358
e 1355 1359
e 1355 1360
e 1355 1361
e 1355 1362
e 1355 1363
e 1355 1364
e 1355 1365
e 1355 1366
e 1355 1367
e 1355 1368
e 1355 1369
e 1355 1370
e 1355 1371
e 1355 1372
e 1355 1373
e 1355 1374
e 1355 1375
e 1355 1376
e 1355 1377
e 1355 1378
e 1355 1379
e 1355 1380
e 1355 1381
e 1355 1382
e 1383 1384
e 1383 1385
e 1383 1386
e 1383 1387
e 1383 1388
e 1383 1389
e 1383 1390
e 1383 1391
e 1383 1392
e 1383 1393
e 1383 1394
e 1383 1395
e 1383 1396
e 1383 1397
e 1383 1398
e 1383 1399
e 1383 1400
e 1383 1401
e 1383 1402
e 1383 1403
e 1383 1404
e 1383 1405
e 1383 1406
e 1383 1407
e 1408 1409
e 1408 1410
e 1408 1411
e 1408 1412
e 1408 1413
e 1408 1414
e 1408 1415
e 1408 1416
e 1408 1417
e 1408 1418
e 1408 1419
e 1408 1420
e 1408 1421
e 1408 1422
e 1408 1423
e 1408 1424
e 1408 1425
e 1408 1426
e 1408 1427
e 1428 1429
e 1428 1430
e 1428 1431
e 1428 1432
e 1428 1433
e 1428 1434
e 1428 1435
e 1428 1436
e 1428 1437
e 1428 1438
e 1428 1439
e 1428 1440
e 1428 1441
e 1428 1442
e 1428 1443
e 1428 1444
e 1428 1445
e 1428 1446
e 1428 1447
e 1428 1448
e 1428 1449
e 1428 1450
e 1428 1451
e 1428 1452
e 1428 1453
e 1428 1454
e 1428 1455
e 1428 1456
e 1428 1457
e 1428 1458
e 1459 1460
e 1459 1461
e 1459 1462
e 1459 1463
e 1459 1464
e 1459 1465
e 1459 1466
e 1459 1467
e 1459 1468
e 1459 1469
e 1459 1470
e 1471 1472
e 1471 1473
e 1471 1474
e 1471 1475
e 1471 1476
e 1471 1477
e 1471 1478
e 1471 1479
e 1471 1480
e 1471 1481
e 1471 1482
e 1471 1483
e 1471 1484
e 1485 1486
e 1485 1487
e 1485 1488
e 1485 1489
e 1485 1490
e 1485 1491
e 1485 1492
e 1485 1493
e 1485 1494
e 1485 1495
e 1485 1496
e 1485 1497
e 1485 1498
e 1485 1499
e 1500 1501
e 1500 1502
e 1500 1503
e 1500 1504
e 1500 1505
e 1500 1506
e 1500 1507
e 1500 1508
e 1500 1509
e 1500 1510
e 1511 1512
e 1511 1513
e 1511 1514
e 1511 1515
e 1511 1516
e 1511 1517
e 1511 1518
e 1511 1519
e 1511 1520
e 1511 1521
e 1511 1522
e 1511 1523
e 1524 1525
e 1524 1526
e 1524 1527
e 1524 1528
e 1524 1529
e 1524 1530
e 1524 1531
e 1524 1532
e 1524 1533
e 1524 1534
e 1524 1535
e 1524 1536
e 1524 1537
e 1524 1538
e 1524 1539
e 1524 1540
e 1524 1541
e 1524 1542
e 1524 1543
e 1524 1544
e 1524 1545
e 1524 1546
e 1524 1547
e 1524 1548
e 1524 1549
e 1524 1550
e 1524 1551
e 1524 1552
e 1524 1553
e 1554 1555
e 1554 1556
e 1554 1557
e 1554 1558
e 1554 1559
e 1554 1560
e 1554 1561
e 1554 1562
e 1554 1563
e 1554 1564
e 1554 1565
e 1554 1566
e 1554 1567
e 1554 1568
e 1554 1569
e 1554 1570
e 1554 1571
e 1554 1572
e 1554 1573
e 1554 1574
e 1554 1575
e 1554 1576
e 1554 1577
e 1554 1578
e 1554 1579
e 1554 1580
e 1581 1582
e 1581 1583
e 1581 1584
e 1581 1585
e 1581 1586
e 1581 1587
e 1581 1588
e 1581 1589
e 1581 1590
e 1581 1591
e 1581 1592
e 1581 1593
e 1581 1594
e 1581 1595
e 1581 1596
e 1581 1597
e 1581 1598
e 1581 1599
e 1581 1600
e 1581 1601
e 1581 1602
e 1581 1603
e 1581 1604
e 1581 1605
e 1606 1607
e 1606 1608
e 1606 1609
e 1606 1610
e 1606 1611
e 1606 1612
e 1606 1613
e 1606 1614
e 1606 1615
e 1606 1616
e 1606 1617
e 1606 1618
e 1619 1620
e 1619 1621
e 1619 1622
e 1619 1623
e 1619 1624
e 1619 1625
e 1619 1626
e 1619 1627
e 1619 1628
e 1619 1629
e 1619 1630
e 1619 1631
e 1619 1632
e 1619 1633
e 1619 1634
e 1619 1635
e 1619 1636
e 1619 1637
e 1619 1638
e 1619 1639
e 1619 1640
e 1619 1641
e 1619 1642
e 1619 1643
e 1644 1645
e 1644 1646
e 1644 1647
e 1644 1648
e 1644 1649
e 1644 1650
e 1644 1651
e 1644 1652
e 1644 1653
e 1644 1654
e 1644 1655
e 1656 1657
e 1656 1658
e 1656 1659
e 1656 1660
e 1656 1661
e 1656 1662
e 1656 1663
e 1656 1664
e 1656 1665
e 1656 1666
e 1656 1667
e 1656 1668
e 1656 1669
e 1656 1670
e 1656 1671
e 1656 1672
e 1656 1673
e 1656 1674
e 1675 1676
e 1675 1677
e 1675 1678
e 1675 1679
e 1675 1680
e 1675 1681
e 1675 1682
e 1675 1683
e 1675 1684
e 1675 1685
e 1675 1686
e 1675 1687
e 1675 1688
e 1675 1689
e 1675 1690
e 1675 1691
e 1675 1692
e 1675 1693
e 1675 1694
e 1675 1695
e 1675 1696
e 1675 1697
e 1675 1698
e 1699 1700
e 1699 1701
e 1699 1702
e 1699 1703
e 1699 1704
e 1699 1705
e 1699 1706
e 1699 1707
e 1699 1708
e 1699 1709
e 1699 1710
e 1699 1711
e 1699 1712
e 1699 1713
e 1699 1714
e 1699 1715
e 1716 1717
e 1716 1718
e 1716 1719
e 1716 1720
e 1716 1721
e 1716 1722
e 1716 1723
e 1716 1724
e 1716 1725
e 1716 1726
e 1716 1727
e 1716 1728
e 1716 1729
e 1716 1730
e 1716 1731
e 1716 1732
e 1716 1733
e 1716 1734
e 1716 1735
e 1716 1736
e 1716 1737
e 1716 1738
e 1716 1739
e 1740 1741
e 1740 1742
e 1740 1743
e 1740 1744
e 1740 1745
e 1740 1746
e 1740 1747
e 1740 1748
e 1740 1749
e 1740 1750
e 1740 1751
e 1740 1752
e 1740 1753
e 1740 1754
e 1740 1755
e 1740 1756
e 1740 1757
e 1740 1758
e 1740 1759
e 1740 1760
e 1740 1761
e 1740 1762
e 1740 1763
e 1740 1764
e 1740 1765
e 1740 1766
e 1740 1767
e 1740 1768
e 1740 1769
e 1770 1771
e 1770 1772
e 1770 1773
e 1770 1774
e 1770 1775
e 1770 1776
e 1770 1777
e 1770 1778
e 1770 1779
e 1770 1780
e 1770 1781
e 1770 1782
e 1770 1783
e 1770 1784
e 1770 1785
e 1770 1786
e 1770 1787
e 1770 1788
e 1770 1789
e 1770 1790
e 1770 1791
e 1770 1792
e 1793 1794
e 1793 1795
e 1793 1796
e 1793 1797
e 1793 1798
e 1793 1799
e 1793 1800
e 1793 1801
e 1793 1802
e 1793 1803
e 1793 1804
e 1793 1805
e 1793 1806
e 1793 1807
e 1793 1808
e 1793 1809
e 1793 1810
e 1793 1811
e 1793 1812
e 1793 1813
e 1793 1814
e 1793 1815
e 1793 1816
e 1793 1817
e 1793 1818
e 1793 1819
